3 
4  48 59 
5  10 29 37 45 54 
6  04 12 20 27 35 42 50 57 
7  05 12 20 27 35 42 50 57 
8  05 12 20 27 35 42 50 57 
9  04 12 19 27 34 42 49 57 
10  04 12 19 27 34 42 49 57 
11  04 12 19 27 34 42 49 57 
12  04 12 19 27 34 42 49 57 
13  04 12 19 27 34 42 49 57 
14  04 12 19 27 34 42 49 57 
15  04 12 19 27 34 42 49 57 
16  04 12 19 27 34 42 49 57 
17  04 12 19 27 34 42 49 57 
18  04 12 19 27 34 42 49 57 
19  04 12 19 27 34 42 49 57 
20  06 21 36 51 
21  06 21 36 50 
22  05 21 36 50 
23 
